(set-info :source |
 Generated by Alive 0.1
 More info in N. P. Lopes, D. Menendez, S. Nagarakatte, J. Regehr.
 Provably Correct Peephole Optimizations with Alive. In PLDI'15.
|)

(set-info :status unknown)
(declare-fun %Y () (_ BitVec 8))
(declare-fun %X () (_ BitVec 8))
(assert
 (let (($x464381 (and (distinct (bvudiv ((_ zero_extend 40) %X) ((_ zero_extend 40) %Y)) ((_ zero_extend 40) (bvudiv %X %Y))) true)))
 (let ((?x464379 ((_ zero_extend 40) %Y)))
 (let (($x464395 (and (distinct ?x464379 (_ bv0 48)) true)))
 (and $x464395 $x464381)))))
(check-sat)
